[runlim] version:		1.10
[runlim] time limit:		311040000 seconds
[runlim] real time limit:	900 seconds
[runlim] space limit:		8000 MB
[runlim] argv[0]:		python3
[runlim] argv[1]:		-u
[runlim] argv[2]:		mip.py
[runlim] argv[3]:		graph03
[runlim] start:			Sat Jan 17 01:50:06 2026
[runlim] main pid:		52985
Building MIP model...
[runlim] sample:		10.0 time, 10.1 real, 30.3 MB
[runlim] sample:		20.0 time, 20.1 real, 33.0 MB
[runlim] sample:		30.0 time, 30.1 real, 36.0 MB
[runlim] sample:		40.0 time, 40.1 real, 38.5 MB
[runlim] sample:		50.0 time, 50.1 real, 41.0 MB
[runlim] sample:		60.0 time, 60.1 real, 43.9 MB
[runlim] sample:		70.0 time, 70.1 real, 44.9 MB
Build time: 79.53s
Solving MIP (minimizing number of labels)...
Version identifier: 22.1.1.0 | 2022-11-28 | 9160aff4d
CPXPARAM_Read_DataCheck                          1
Legacy callback                                  i
[runlim] sample:		80.0 time, 80.1 real, 121.9 MB
Tried aggregator 2 times.
MIP Presolve eliminated 490231 rows and 85 columns.
MIP Presolve modified 20373 coefficients.
Aggregator did 3910 substitutions.
Reduced MIP has 10327 rows, 3873 columns, and 281290 nonzeros.
Reduced MIP has 3873 binaries, 0 generals, 0 SOSs, and 0 indicators.
Presolve time = 3.56 sec. (5706.63 ticks)
Probing fixed 133 vars, tightened 0 bounds.
Probing changed sense of 13 constraints.
Probing time = 0.02 sec. (9.09 ticks)
Tried aggregator 2 times.
Detecting symmetries...
MIP Presolve eliminated 245 rows and 164 columns.
MIP Presolve modified 1812 coefficients.
Aggregator did 1 substitutions.
Reduced MIP has 10007 rows, 3706 columns, and 266090 nonzeros.
Reduced MIP has 3706 binaries, 0 generals, 0 SOSs, and 0 indicators.
Presolve time = 0.26 sec. (428.53 ticks)
Probing fixed 25 vars, tightened 0 bounds.
Probing changed sense of 2 constraints.
Probing time = 0.02 sec. (9.32 ticks)
Cover probing fixed 1 vars, tightened 0 bounds.
Clique table members: 13835.
MIP emphasis: balance optimality and feasibility.
MIP search method: dynamic search.
Parallel mode: deterministic, using up to 12 threads.
[runlim] sample:		122.1 time, 90.1 real, 318.9 MB
Root relaxation solution time = 6.83 sec. (6166.42 ticks)

        Nodes                                         Cuts/
   Node  Left     Objective  IInf  Best Integer    Best Bound    ItCnt     Gap

*     0+    0                           44.0000        0.0000           100.00%
      0     0       12.0000   881       44.0000       12.0000       13   72.73%

========== NEW INCUMBENT SOLUTION ==========
{1: 44, 2: 282, 3: 142, 4: 380, 5: 86, 6: 324, 7: 792, 8: 554, 9: 142, 10: 380, 11: 666, 12: 428, 13: 58, 14: 296, 15: 114, 16: 352, 17: 114, 18: 352, 19: 736, 20: 498, 21: 30, 22: 268, 23: 86, 24: 324, 25: 708, 26: 470, 27: 100, 28: 338, 29: 694, 30: 456, 31: 142, 32: 380, 33: 44, 34: 282, 35: 142, 36: 380, 37: 86, 38: 324, 39: 792, 40: 554, 41: 16, 42: 254, 43: 86, 44: 324, 45: 750, 46: 512, 47: 764, 48: 526, 49: 30, 50: 268, 51: 128, 52: 366, 53: 666, 54: 428, 55: 44, 56: 282, 57: 722, 58: 484, 59: 652, 60: 414, 61: 86, 62: 324, 63: 16, 64: 254, 65: 750, 66: 512, 67: 708, 68: 470, 69: 778, 70: 540, 71: 666, 72: 428, 73: 666, 74: 428, 75: 722, 76: 484, 77: 44, 78: 282, 79: 792, 80: 554, 81: 694, 82: 456, 83: 30, 84: 268, 85: 16, 86: 254, 87: 792, 88: 554, 89: 736, 90: 498, 91: 16, 92: 254, 93: 778, 94: 540, 95: 142, 96: 380, 97: 30, 98: 268, 99: 764, 100: 526, 101: 16, 102: 254, 103: 128, 104: 366, 105: 86, 106: 324, 107: 100, 108: 338, 109: 666, 110: 428, 111: 764, 112: 526, 113: 58, 114: 296, 115: 750, 116: 512, 117: 156, 118: 394, 119: 764, 120: 526, 121: 128, 122: 366, 123: 16, 124: 254, 125: 750, 126: 512, 127: 72, 128: 310, 129: 792, 130: 554, 131: 750, 132: 512, 133: 72, 134: 310, 135: 666, 136: 428, 137: 156, 138: 394, 139: 722, 140: 484, 141: 114, 142: 352, 143: 750, 144: 512, 145: 30, 146: 268, 147: 58, 148: 296, 149: 764, 150: 526, 151: 44, 152: 282, 153: 792, 154: 554, 155: 86, 156: 324, 157: 16, 158: 254, 159: 100, 160: 338, 161: 72, 162: 310, 163: 16, 164: 254, 165: 128, 166: 366, 167: 792, 168: 554, 169: 652, 170: 414, 171: 680, 172: 442, 173: 44, 174: 282, 175: 792, 176: 554, 177: 764, 178: 526, 179: 736, 180: 498, 181: 666, 182: 428, 183: 694, 184: 456, 185: 708, 186: 470, 187: 708, 188: 470, 189: 778, 190: 540, 191: 792, 192: 554, 193: 72, 194: 310, 195: 44, 196: 282, 197: 128, 198: 366, 199: 764, 200: 526}
Number of labels used: 44
Total time: 90.71 sec
Memory: 320.62 MB
=============================================

========== NEW INCUMBENT SOLUTION ==========
{1: 44, 2: 282, 3: 142, 4: 380, 5: 86, 6: 324, 7: 792, 8: 554, 9: 142, 10: 380, 11: 666, 12: 428, 13: 58, 14: 296, 15: 114, 16: 352, 17: 114, 18: 352, 19: 736, 20: 498, 21: 30, 22: 268, 23: 86, 24: 324, 25: 708, 26: 470, 27: 100, 28: 338, 29: 694, 30: 456, 31: 142, 32: 380, 33: 44, 34: 282, 35: 142, 36: 380, 37: 86, 38: 324, 39: 792, 40: 554, 41: 16, 42: 254, 43: 86, 44: 324, 45: 750, 46: 512, 47: 764, 48: 526, 49: 30, 50: 268, 51: 128, 52: 366, 53: 666, 54: 428, 55: 44, 56: 282, 57: 722, 58: 484, 59: 652, 60: 414, 61: 86, 62: 324, 63: 16, 64: 254, 65: 750, 66: 512, 67: 708, 68: 470, 69: 778, 70: 540, 71: 666, 72: 428, 73: 666, 74: 428, 75: 722, 76: 484, 77: 44, 78: 282, 79: 792, 80: 554, 81: 694, 82: 456, 83: 30, 84: 268, 85: 16, 86: 254, 87: 792, 88: 554, 89: 736, 90: 498, 91: 16, 92: 254, 93: 778, 94: 540, 95: 142, 96: 380, 97: 30, 98: 268, 99: 764, 100: 526, 101: 16, 102: 254, 103: 128, 104: 366, 105: 86, 106: 324, 107: 100, 108: 338, 109: 666, 110: 428, 111: 764, 112: 526, 113: 58, 114: 296, 115: 750, 116: 512, 117: 156, 118: 394, 119: 764, 120: 526, 121: 128, 122: 366, 123: 16, 124: 254, 125: 750, 126: 512, 127: 72, 128: 310, 129: 792, 130: 554, 131: 750, 132: 512, 133: 72, 134: 310, 135: 666, 136: 428, 137: 156, 138: 394, 139: 722, 140: 484, 141: 114, 142: 352, 143: 750, 144: 512, 145: 30, 146: 268, 147: 58, 148: 296, 149: 764, 150: 526, 151: 44, 152: 282, 153: 792, 154: 554, 155: 86, 156: 324, 157: 16, 158: 254, 159: 100, 160: 338, 161: 72, 162: 310, 163: 16, 164: 254, 165: 128, 166: 366, 167: 792, 168: 554, 169: 652, 170: 414, 171: 680, 172: 442, 173: 44, 174: 282, 175: 792, 176: 554, 177: 764, 178: 526, 179: 736, 180: 498, 181: 666, 182: 428, 183: 694, 184: 456, 185: 708, 186: 470, 187: 708, 188: 470, 189: 778, 190: 540, 191: 792, 192: 554, 193: 72, 194: 310, 195: 44, 196: 282, 197: 128, 198: 366, 199: 764, 200: 526}
Number of labels used: 44
Total time: 90.71 sec
Memory: 320.62 MB
=============================================
[runlim] sample:		142.1 time, 100.1 real, 360.5 MB
[runlim] sample:		162.2 time, 110.1 real, 380.9 MB
[runlim] sample:		182.1 time, 120.1 real, 381.1 MB
[runlim] sample:		202.1 time, 130.1 real, 381.2 MB
[runlim] sample:		222.2 time, 140.1 real, 381.2 MB
[runlim] sample:		242.1 time, 150.1 real, 381.2 MB
[runlim] sample:		262.1 time, 160.1 real, 381.2 MB
[runlim] sample:		282.2 time, 170.1 real, 381.2 MB
[runlim] sample:		302.1 time, 180.1 real, 381.4 MB
[runlim] sample:		322.1 time, 190.1 real, 381.5 MB
*     0+    0                           42.0000       12.0000            71.43%

========== NEW INCUMBENT SOLUTION ==========
{1: 694, 2: 456, 3: 142, 4: 380, 5: 142, 6: 380, 7: 792, 8: 554, 9: 142, 10: 380, 11: 666, 12: 428, 13: 58, 14: 296, 15: 114, 16: 352, 17: 114, 18: 352, 19: 58, 20: 296, 21: 30, 22: 268, 23: 86, 24: 324, 25: 708, 26: 470, 27: 100, 28: 338, 29: 694, 30: 456, 31: 142, 32: 380, 33: 44, 34: 282, 35: 142, 36: 380, 37: 86, 38: 324, 39: 16, 40: 254, 41: 16, 42: 254, 43: 86, 44: 324, 45: 58, 46: 296, 47: 764, 48: 526, 49: 30, 50: 268, 51: 128, 52: 366, 53: 666, 54: 428, 55: 44, 56: 282, 57: 722, 58: 484, 59: 652, 60: 414, 61: 86, 62: 324, 63: 16, 64: 254, 65: 750, 66: 512, 67: 708, 68: 470, 69: 30, 70: 268, 71: 666, 72: 428, 73: 142, 74: 380, 75: 722, 76: 484, 77: 44, 78: 282, 79: 16, 80: 254, 81: 764, 82: 526, 83: 30, 84: 268, 85: 792, 86: 554, 87: 792, 88: 554, 89: 694, 90: 456, 91: 16, 92: 254, 93: 30, 94: 268, 95: 142, 96: 380, 97: 30, 98: 268, 99: 44, 100: 282, 101: 16, 102: 254, 103: 128, 104: 366, 105: 86, 106: 324, 107: 100, 108: 338, 109: 666, 110: 428, 111: 764, 112: 526, 113: 58, 114: 296, 115: 58, 116: 296, 117: 156, 118: 394, 119: 764, 120: 526, 121: 694, 122: 456, 123: 16, 124: 254, 125: 750, 126: 512, 127: 72, 128: 310, 129: 792, 130: 554, 131: 750, 132: 512, 133: 72, 134: 310, 135: 666, 136: 428, 137: 156, 138: 394, 139: 722, 140: 484, 141: 114, 142: 352, 143: 750, 144: 512, 145: 30, 146: 268, 147: 58, 148: 296, 149: 764, 150: 526, 151: 44, 152: 282, 153: 792, 154: 554, 155: 86, 156: 324, 157: 16, 158: 254, 159: 100, 160: 338, 161: 72, 162: 310, 163: 16, 164: 254, 165: 128, 166: 366, 167: 792, 168: 554, 169: 652, 170: 414, 171: 680, 172: 442, 173: 44, 174: 282, 175: 792, 176: 554, 177: 764, 178: 526, 179: 736, 180: 498, 181: 666, 182: 428, 183: 694, 184: 456, 185: 694, 186: 456, 187: 792, 188: 554, 189: 30, 190: 268, 191: 16, 192: 254, 193: 72, 194: 310, 195: 44, 196: 282, 197: 128, 198: 366, 199: 30, 200: 268}
Number of labels used: 42
Total time: 197.89 sec
Memory: 381.49 MB
=============================================
      0     0       12.0000  1511       42.0000     Cuts: 284    52584   71.43%

========== NEW INCUMBENT SOLUTION ==========
{1: 694, 2: 456, 3: 142, 4: 380, 5: 142, 6: 380, 7: 792, 8: 554, 9: 142, 10: 380, 11: 666, 12: 428, 13: 58, 14: 296, 15: 114, 16: 352, 17: 114, 18: 352, 19: 58, 20: 296, 21: 30, 22: 268, 23: 86, 24: 324, 25: 708, 26: 470, 27: 100, 28: 338, 29: 694, 30: 456, 31: 142, 32: 380, 33: 44, 34: 282, 35: 142, 36: 380, 37: 86, 38: 324, 39: 16, 40: 254, 41: 16, 42: 254, 43: 86, 44: 324, 45: 58, 46: 296, 47: 764, 48: 526, 49: 30, 50: 268, 51: 128, 52: 366, 53: 666, 54: 428, 55: 44, 56: 282, 57: 722, 58: 484, 59: 652, 60: 414, 61: 86, 62: 324, 63: 16, 64: 254, 65: 750, 66: 512, 67: 708, 68: 470, 69: 30, 70: 268, 71: 666, 72: 428, 73: 142, 74: 380, 75: 722, 76: 484, 77: 44, 78: 282, 79: 16, 80: 254, 81: 764, 82: 526, 83: 30, 84: 268, 85: 792, 86: 554, 87: 792, 88: 554, 89: 694, 90: 456, 91: 16, 92: 254, 93: 30, 94: 268, 95: 142, 96: 380, 97: 30, 98: 268, 99: 44, 100: 282, 101: 16, 102: 254, 103: 128, 104: 366, 105: 86, 106: 324, 107: 100, 108: 338, 109: 666, 110: 428, 111: 764, 112: 526, 113: 58, 114: 296, 115: 58, 116: 296, 117: 156, 118: 394, 119: 764, 120: 526, 121: 694, 122: 456, 123: 16, 124: 254, 125: 750, 126: 512, 127: 72, 128: 310, 129: 792, 130: 554, 131: 750, 132: 512, 133: 72, 134: 310, 135: 666, 136: 428, 137: 156, 138: 394, 139: 722, 140: 484, 141: 114, 142: 352, 143: 750, 144: 512, 145: 30, 146: 268, 147: 58, 148: 296, 149: 764, 150: 526, 151: 44, 152: 282, 153: 792, 154: 554, 155: 86, 156: 324, 157: 16, 158: 254, 159: 100, 160: 338, 161: 72, 162: 310, 163: 16, 164: 254, 165: 128, 166: 366, 167: 792, 168: 554, 169: 652, 170: 414, 171: 680, 172: 442, 173: 44, 174: 282, 175: 792, 176: 554, 177: 764, 178: 526, 179: 736, 180: 498, 181: 666, 182: 428, 183: 694, 184: 456, 185: 694, 186: 456, 187: 792, 188: 554, 189: 30, 190: 268, 191: 16, 192: 254, 193: 72, 194: 310, 195: 44, 196: 282, 197: 128, 198: 366, 199: 30, 200: 268}
Number of labels used: 42
Total time: 197.91 sec
Memory: 381.49 MB
=============================================
[runlim] sample:		342.2 time, 200.1 real, 394.5 MB
[runlim] sample:		362.2 time, 210.1 real, 395.4 MB
[runlim] sample:		382.1 time, 220.1 real, 395.4 MB
[runlim] sample:		402.1 time, 230.1 real, 400.1 MB
[runlim] sample:		422.3 time, 240.1 real, 400.4 MB
[runlim] sample:		442.1 time, 250.1 real, 400.4 MB
[runlim] sample:		462.1 time, 260.1 real, 400.4 MB
[runlim] sample:		482.2 time, 270.1 real, 400.4 MB
[runlim] sample:		502.1 time, 280.1 real, 400.4 MB
[runlim] sample:		522.1 time, 290.1 real, 400.4 MB
[runlim] sample:		542.2 time, 300.1 real, 400.4 MB

========== NEW INCUMBENT SOLUTION ==========
{1: 694, 2: 456, 3: 142, 4: 380, 5: 142, 6: 380, 7: 792, 8: 554, 9: 142, 10: 380, 11: 666, 12: 428, 13: 58, 14: 296, 15: 114, 16: 352, 17: 114, 18: 352, 19: 58, 20: 296, 21: 30, 22: 268, 23: 86, 24: 324, 25: 708, 26: 470, 27: 100, 28: 338, 29: 694, 30: 456, 31: 142, 32: 380, 33: 44, 34: 282, 35: 142, 36: 380, 37: 86, 38: 324, 39: 16, 40: 254, 41: 16, 42: 254, 43: 86, 44: 324, 45: 58, 46: 296, 47: 764, 48: 526, 49: 30, 50: 268, 51: 128, 52: 366, 53: 666, 54: 428, 55: 44, 56: 282, 57: 722, 58: 484, 59: 652, 60: 414, 61: 86, 62: 324, 63: 16, 64: 254, 65: 750, 66: 512, 67: 708, 68: 470, 69: 30, 70: 268, 71: 666, 72: 428, 73: 142, 74: 380, 75: 722, 76: 484, 77: 44, 78: 282, 79: 16, 80: 254, 81: 764, 82: 526, 83: 30, 84: 268, 85: 792, 86: 554, 87: 792, 88: 554, 89: 694, 90: 456, 91: 16, 92: 254, 93: 30, 94: 268, 95: 142, 96: 380, 97: 30, 98: 268, 99: 44, 100: 282, 101: 16, 102: 254, 103: 128, 104: 366, 105: 86, 106: 324, 107: 100, 108: 338, 109: 666, 110: 428, 111: 764, 112: 526, 113: 58, 114: 296, 115: 58, 116: 296, 117: 156, 118: 394, 119: 764, 120: 526, 121: 694, 122: 456, 123: 16, 124: 254, 125: 750, 126: 512, 127: 72, 128: 310, 129: 792, 130: 554, 131: 750, 132: 512, 133: 72, 134: 310, 135: 666, 136: 428, 137: 156, 138: 394, 139: 722, 140: 484, 141: 114, 142: 352, 143: 750, 144: 512, 145: 30, 146: 268, 147: 58, 148: 296, 149: 764, 150: 526, 151: 44, 152: 282, 153: 792, 154: 554, 155: 86, 156: 324, 157: 16, 158: 254, 159: 100, 160: 338, 161: 72, 162: 310, 163: 16, 164: 254, 165: 128, 166: 366, 167: 792, 168: 554, 169: 652, 170: 414, 171: 680, 172: 442, 173: 44, 174: 282, 175: 792, 176: 554, 177: 764, 178: 526, 179: 736, 180: 498, 181: 666, 182: 428, 183: 694, 184: 456, 185: 694, 186: 456, 187: 792, 188: 554, 189: 30, 190: 268, 191: 16, 192: 254, 193: 72, 194: 310, 195: 44, 196: 282, 197: 128, 198: 366, 199: 30, 200: 268}
Number of labels used: 42
Total time: 300.87 sec
Memory: 400.37 MB
=============================================
      0     0       12.0000  1481       42.0000     Cuts: 443   100051   71.43%

========== NEW INCUMBENT SOLUTION ==========
{1: 694, 2: 456, 3: 142, 4: 380, 5: 142, 6: 380, 7: 792, 8: 554, 9: 142, 10: 380, 11: 666, 12: 428, 13: 58, 14: 296, 15: 114, 16: 352, 17: 114, 18: 352, 19: 58, 20: 296, 21: 30, 22: 268, 23: 86, 24: 324, 25: 708, 26: 470, 27: 100, 28: 338, 29: 694, 30: 456, 31: 142, 32: 380, 33: 44, 34: 282, 35: 142, 36: 380, 37: 86, 38: 324, 39: 16, 40: 254, 41: 16, 42: 254, 43: 86, 44: 324, 45: 58, 46: 296, 47: 764, 48: 526, 49: 30, 50: 268, 51: 128, 52: 366, 53: 666, 54: 428, 55: 44, 56: 282, 57: 722, 58: 484, 59: 652, 60: 414, 61: 86, 62: 324, 63: 16, 64: 254, 65: 750, 66: 512, 67: 708, 68: 470, 69: 30, 70: 268, 71: 666, 72: 428, 73: 142, 74: 380, 75: 722, 76: 484, 77: 44, 78: 282, 79: 16, 80: 254, 81: 764, 82: 526, 83: 30, 84: 268, 85: 792, 86: 554, 87: 792, 88: 554, 89: 694, 90: 456, 91: 16, 92: 254, 93: 30, 94: 268, 95: 142, 96: 380, 97: 30, 98: 268, 99: 44, 100: 282, 101: 16, 102: 254, 103: 128, 104: 366, 105: 86, 106: 324, 107: 100, 108: 338, 109: 666, 110: 428, 111: 764, 112: 526, 113: 58, 114: 296, 115: 58, 116: 296, 117: 156, 118: 394, 119: 764, 120: 526, 121: 694, 122: 456, 123: 16, 124: 254, 125: 750, 126: 512, 127: 72, 128: 310, 129: 792, 130: 554, 131: 750, 132: 512, 133: 72, 134: 310, 135: 666, 136: 428, 137: 156, 138: 394, 139: 722, 140: 484, 141: 114, 142: 352, 143: 750, 144: 512, 145: 30, 146: 268, 147: 58, 148: 296, 149: 764, 150: 526, 151: 44, 152: 282, 153: 792, 154: 554, 155: 86, 156: 324, 157: 16, 158: 254, 159: 100, 160: 338, 161: 72, 162: 310, 163: 16, 164: 254, 165: 128, 166: 366, 167: 792, 168: 554, 169: 652, 170: 414, 171: 680, 172: 442, 173: 44, 174: 282, 175: 792, 176: 554, 177: 764, 178: 526, 179: 736, 180: 498, 181: 666, 182: 428, 183: 694, 184: 456, 185: 694, 186: 456, 187: 792, 188: 554, 189: 30, 190: 268, 191: 16, 192: 254, 193: 72, 194: 310, 195: 44, 196: 282, 197: 128, 198: 366, 199: 30, 200: 268}
Number of labels used: 42
Total time: 300.89 sec
Memory: 400.37 MB
=============================================
[runlim] sample:		562.1 time, 310.1 real, 400.4 MB
[runlim] sample:		582.1 time, 320.1 real, 400.5 MB
[runlim] sample:		602.2 time, 330.1 real, 401.2 MB
[runlim] sample:		622.2 time, 340.1 real, 401.2 MB
[runlim] sample:		642.1 time, 350.1 real, 401.2 MB
[runlim] sample:		662.1 time, 360.1 real, 401.2 MB
[runlim] sample:		682.3 time, 370.1 real, 401.2 MB
[runlim] sample:		702.1 time, 380.1 real, 401.2 MB
[runlim] sample:		722.1 time, 390.1 real, 401.2 MB
[runlim] sample:		742.2 time, 400.1 real, 401.2 MB
[runlim] sample:		762.1 time, 410.1 real, 401.2 MB
[runlim] sample:		782.1 time, 420.1 real, 401.2 MB
[runlim] sample:		802.2 time, 430.1 real, 401.2 MB

========== NEW INCUMBENT SOLUTION ==========
{1: 694, 2: 456, 3: 142, 4: 380, 5: 142, 6: 380, 7: 792, 8: 554, 9: 142, 10: 380, 11: 666, 12: 428, 13: 58, 14: 296, 15: 114, 16: 352, 17: 114, 18: 352, 19: 58, 20: 296, 21: 30, 22: 268, 23: 86, 24: 324, 25: 708, 26: 470, 27: 100, 28: 338, 29: 694, 30: 456, 31: 142, 32: 380, 33: 44, 34: 282, 35: 142, 36: 380, 37: 86, 38: 324, 39: 16, 40: 254, 41: 16, 42: 254, 43: 86, 44: 324, 45: 58, 46: 296, 47: 764, 48: 526, 49: 30, 50: 268, 51: 128, 52: 366, 53: 666, 54: 428, 55: 44, 56: 282, 57: 722, 58: 484, 59: 652, 60: 414, 61: 86, 62: 324, 63: 16, 64: 254, 65: 750, 66: 512, 67: 708, 68: 470, 69: 30, 70: 268, 71: 666, 72: 428, 73: 142, 74: 380, 75: 722, 76: 484, 77: 44, 78: 282, 79: 16, 80: 254, 81: 764, 82: 526, 83: 30, 84: 268, 85: 792, 86: 554, 87: 792, 88: 554, 89: 694, 90: 456, 91: 16, 92: 254, 93: 30, 94: 268, 95: 142, 96: 380, 97: 30, 98: 268, 99: 44, 100: 282, 101: 16, 102: 254, 103: 128, 104: 366, 105: 86, 106: 324, 107: 100, 108: 338, 109: 666, 110: 428, 111: 764, 112: 526, 113: 58, 114: 296, 115: 58, 116: 296, 117: 156, 118: 394, 119: 764, 120: 526, 121: 694, 122: 456, 123: 16, 124: 254, 125: 750, 126: 512, 127: 72, 128: 310, 129: 792, 130: 554, 131: 750, 132: 512, 133: 72, 134: 310, 135: 666, 136: 428, 137: 156, 138: 394, 139: 722, 140: 484, 141: 114, 142: 352, 143: 750, 144: 512, 145: 30, 146: 268, 147: 58, 148: 296, 149: 764, 150: 526, 151: 44, 152: 282, 153: 792, 154: 554, 155: 86, 156: 324, 157: 16, 158: 254, 159: 100, 160: 338, 161: 72, 162: 310, 163: 16, 164: 254, 165: 128, 166: 366, 167: 792, 168: 554, 169: 652, 170: 414, 171: 680, 172: 442, 173: 44, 174: 282, 175: 792, 176: 554, 177: 764, 178: 526, 179: 736, 180: 498, 181: 666, 182: 428, 183: 694, 184: 456, 185: 694, 186: 456, 187: 792, 188: 554, 189: 30, 190: 268, 191: 16, 192: 254, 193: 72, 194: 310, 195: 44, 196: 282, 197: 128, 198: 366, 199: 30, 200: 268}
Number of labels used: 42
Total time: 431.24 sec
Memory: 401.24 MB
=============================================
      0     0       12.0636  1529       42.0000     Cuts: 398   195899   71.28%

========== NEW INCUMBENT SOLUTION ==========
{1: 694, 2: 456, 3: 142, 4: 380, 5: 142, 6: 380, 7: 792, 8: 554, 9: 142, 10: 380, 11: 666, 12: 428, 13: 58, 14: 296, 15: 114, 16: 352, 17: 114, 18: 352, 19: 58, 20: 296, 21: 30, 22: 268, 23: 86, 24: 324, 25: 708, 26: 470, 27: 100, 28: 338, 29: 694, 30: 456, 31: 142, 32: 380, 33: 44, 34: 282, 35: 142, 36: 380, 37: 86, 38: 324, 39: 16, 40: 254, 41: 16, 42: 254, 43: 86, 44: 324, 45: 58, 46: 296, 47: 764, 48: 526, 49: 30, 50: 268, 51: 128, 52: 366, 53: 666, 54: 428, 55: 44, 56: 282, 57: 722, 58: 484, 59: 652, 60: 414, 61: 86, 62: 324, 63: 16, 64: 254, 65: 750, 66: 512, 67: 708, 68: 470, 69: 30, 70: 268, 71: 666, 72: 428, 73: 142, 74: 380, 75: 722, 76: 484, 77: 44, 78: 282, 79: 16, 80: 254, 81: 764, 82: 526, 83: 30, 84: 268, 85: 792, 86: 554, 87: 792, 88: 554, 89: 694, 90: 456, 91: 16, 92: 254, 93: 30, 94: 268, 95: 142, 96: 380, 97: 30, 98: 268, 99: 44, 100: 282, 101: 16, 102: 254, 103: 128, 104: 366, 105: 86, 106: 324, 107: 100, 108: 338, 109: 666, 110: 428, 111: 764, 112: 526, 113: 58, 114: 296, 115: 58, 116: 296, 117: 156, 118: 394, 119: 764, 120: 526, 121: 694, 122: 456, 123: 16, 124: 254, 125: 750, 126: 512, 127: 72, 128: 310, 129: 792, 130: 554, 131: 750, 132: 512, 133: 72, 134: 310, 135: 666, 136: 428, 137: 156, 138: 394, 139: 722, 140: 484, 141: 114, 142: 352, 143: 750, 144: 512, 145: 30, 146: 268, 147: 58, 148: 296, 149: 764, 150: 526, 151: 44, 152: 282, 153: 792, 154: 554, 155: 86, 156: 324, 157: 16, 158: 254, 159: 100, 160: 338, 161: 72, 162: 310, 163: 16, 164: 254, 165: 128, 166: 366, 167: 792, 168: 554, 169: 652, 170: 414, 171: 680, 172: 442, 173: 44, 174: 282, 175: 792, 176: 554, 177: 764, 178: 526, 179: 736, 180: 498, 181: 666, 182: 428, 183: 694, 184: 456, 185: 694, 186: 456, 187: 792, 188: 554, 189: 30, 190: 268, 191: 16, 192: 254, 193: 72, 194: 310, 195: 44, 196: 282, 197: 128, 198: 366, 199: 30, 200: 268}
Number of labels used: 42
Total time: 431.27 sec
Memory: 401.24 MB
=============================================
[runlim] sample:		822.2 time, 440.1 real, 402.2 MB
[runlim] sample:		842.1 time, 450.1 real, 403.2 MB
[runlim] sample:		862.2 time, 460.1 real, 403.2 MB
[runlim] sample:		882.3 time, 470.1 real, 403.2 MB
[runlim] sample:		902.4 time, 480.1 real, 403.2 MB
[runlim] sample:		922.5 time, 490.1 real, 403.2 MB
[runlim] sample:		942.3 time, 500.1 real, 403.2 MB

========== NEW INCUMBENT SOLUTION ==========
{1: 694, 2: 456, 3: 142, 4: 380, 5: 142, 6: 380, 7: 792, 8: 554, 9: 142, 10: 380, 11: 666, 12: 428, 13: 58, 14: 296, 15: 114, 16: 352, 17: 114, 18: 352, 19: 58, 20: 296, 21: 30, 22: 268, 23: 86, 24: 324, 25: 708, 26: 470, 27: 100, 28: 338, 29: 694, 30: 456, 31: 142, 32: 380, 33: 44, 34: 282, 35: 142, 36: 380, 37: 86, 38: 324, 39: 16, 40: 254, 41: 16, 42: 254, 43: 86, 44: 324, 45: 58, 46: 296, 47: 764, 48: 526, 49: 30, 50: 268, 51: 128, 52: 366, 53: 666, 54: 428, 55: 44, 56: 282, 57: 722, 58: 484, 59: 652, 60: 414, 61: 86, 62: 324, 63: 16, 64: 254, 65: 750, 66: 512, 67: 708, 68: 470, 69: 30, 70: 268, 71: 666, 72: 428, 73: 142, 74: 380, 75: 722, 76: 484, 77: 44, 78: 282, 79: 16, 80: 254, 81: 764, 82: 526, 83: 30, 84: 268, 85: 792, 86: 554, 87: 792, 88: 554, 89: 694, 90: 456, 91: 16, 92: 254, 93: 30, 94: 268, 95: 142, 96: 380, 97: 30, 98: 268, 99: 44, 100: 282, 101: 16, 102: 254, 103: 128, 104: 366, 105: 86, 106: 324, 107: 100, 108: 338, 109: 666, 110: 428, 111: 764, 112: 526, 113: 58, 114: 296, 115: 58, 116: 296, 117: 156, 118: 394, 119: 764, 120: 526, 121: 694, 122: 456, 123: 16, 124: 254, 125: 750, 126: 512, 127: 72, 128: 310, 129: 792, 130: 554, 131: 750, 132: 512, 133: 72, 134: 310, 135: 666, 136: 428, 137: 156, 138: 394, 139: 722, 140: 484, 141: 114, 142: 352, 143: 750, 144: 512, 145: 30, 146: 268, 147: 58, 148: 296, 149: 764, 150: 526, 151: 44, 152: 282, 153: 792, 154: 554, 155: 86, 156: 324, 157: 16, 158: 254, 159: 100, 160: 338, 161: 72, 162: 310, 163: 16, 164: 254, 165: 128, 166: 366, 167: 792, 168: 554, 169: 652, 170: 414, 171: 680, 172: 442, 173: 44, 174: 282, 175: 792, 176: 554, 177: 764, 178: 526, 179: 736, 180: 498, 181: 666, 182: 428, 183: 694, 184: 456, 185: 694, 186: 456, 187: 792, 188: 554, 189: 30, 190: 268, 191: 16, 192: 254, 193: 72, 194: 310, 195: 44, 196: 282, 197: 128, 198: 366, 199: 30, 200: 268}
Number of labels used: 42
Total time: 500.30 sec
Memory: 403.24 MB
=============================================
[runlim] sample:		962.0 time, 510.1 real, 406.5 MB
[runlim] sample:		982.0 time, 520.1 real, 406.5 MB
[runlim] sample:		1002.2 time, 530.1 real, 406.5 MB
[runlim] sample:		1022.1 time, 540.1 real, 406.5 MB
[runlim] sample:		1042.1 time, 550.1 real, 406.5 MB
[runlim] sample:		1062.2 time, 560.1 real, 406.5 MB
[runlim] sample:		1082.3 time, 570.1 real, 406.5 MB
[runlim] sample:		1102.4 time, 580.1 real, 406.5 MB
[runlim] sample:		1122.3 time, 590.1 real, 406.5 MB
[runlim] sample:		1142.1 time, 600.1 real, 406.5 MB

========== NEW INCUMBENT SOLUTION ==========
{1: 694, 2: 456, 3: 142, 4: 380, 5: 142, 6: 380, 7: 792, 8: 554, 9: 142, 10: 380, 11: 666, 12: 428, 13: 58, 14: 296, 15: 114, 16: 352, 17: 114, 18: 352, 19: 58, 20: 296, 21: 30, 22: 268, 23: 86, 24: 324, 25: 708, 26: 470, 27: 100, 28: 338, 29: 694, 30: 456, 31: 142, 32: 380, 33: 44, 34: 282, 35: 142, 36: 380, 37: 86, 38: 324, 39: 16, 40: 254, 41: 16, 42: 254, 43: 86, 44: 324, 45: 58, 46: 296, 47: 764, 48: 526, 49: 30, 50: 268, 51: 128, 52: 366, 53: 666, 54: 428, 55: 44, 56: 282, 57: 722, 58: 484, 59: 652, 60: 414, 61: 86, 62: 324, 63: 16, 64: 254, 65: 750, 66: 512, 67: 708, 68: 470, 69: 30, 70: 268, 71: 666, 72: 428, 73: 142, 74: 380, 75: 722, 76: 484, 77: 44, 78: 282, 79: 16, 80: 254, 81: 764, 82: 526, 83: 30, 84: 268, 85: 792, 86: 554, 87: 792, 88: 554, 89: 694, 90: 456, 91: 16, 92: 254, 93: 30, 94: 268, 95: 142, 96: 380, 97: 30, 98: 268, 99: 44, 100: 282, 101: 16, 102: 254, 103: 128, 104: 366, 105: 86, 106: 324, 107: 100, 108: 338, 109: 666, 110: 428, 111: 764, 112: 526, 113: 58, 114: 296, 115: 58, 116: 296, 117: 156, 118: 394, 119: 764, 120: 526, 121: 694, 122: 456, 123: 16, 124: 254, 125: 750, 126: 512, 127: 72, 128: 310, 129: 792, 130: 554, 131: 750, 132: 512, 133: 72, 134: 310, 135: 666, 136: 428, 137: 156, 138: 394, 139: 722, 140: 484, 141: 114, 142: 352, 143: 750, 144: 512, 145: 30, 146: 268, 147: 58, 148: 296, 149: 764, 150: 526, 151: 44, 152: 282, 153: 792, 154: 554, 155: 86, 156: 324, 157: 16, 158: 254, 159: 100, 160: 338, 161: 72, 162: 310, 163: 16, 164: 254, 165: 128, 166: 366, 167: 792, 168: 554, 169: 652, 170: 414, 171: 680, 172: 442, 173: 44, 174: 282, 175: 792, 176: 554, 177: 764, 178: 526, 179: 736, 180: 498, 181: 666, 182: 428, 183: 694, 184: 456, 185: 694, 186: 456, 187: 792, 188: 554, 189: 30, 190: 268, 191: 16, 192: 254, 193: 72, 194: 310, 195: 44, 196: 282, 197: 128, 198: 366, 199: 30, 200: 268}
Number of labels used: 42
Total time: 599.96 sec
Memory: 406.49 MB
=============================================
      0     0       12.1043  1565       42.0000     Cuts: 982   314140   71.18%

========== NEW INCUMBENT SOLUTION ==========
{1: 694, 2: 456, 3: 142, 4: 380, 5: 142, 6: 380, 7: 792, 8: 554, 9: 142, 10: 380, 11: 666, 12: 428, 13: 58, 14: 296, 15: 114, 16: 352, 17: 114, 18: 352, 19: 58, 20: 296, 21: 30, 22: 268, 23: 86, 24: 324, 25: 708, 26: 470, 27: 100, 28: 338, 29: 694, 30: 456, 31: 142, 32: 380, 33: 44, 34: 282, 35: 142, 36: 380, 37: 86, 38: 324, 39: 16, 40: 254, 41: 16, 42: 254, 43: 86, 44: 324, 45: 58, 46: 296, 47: 764, 48: 526, 49: 30, 50: 268, 51: 128, 52: 366, 53: 666, 54: 428, 55: 44, 56: 282, 57: 722, 58: 484, 59: 652, 60: 414, 61: 86, 62: 324, 63: 16, 64: 254, 65: 750, 66: 512, 67: 708, 68: 470, 69: 30, 70: 268, 71: 666, 72: 428, 73: 142, 74: 380, 75: 722, 76: 484, 77: 44, 78: 282, 79: 16, 80: 254, 81: 764, 82: 526, 83: 30, 84: 268, 85: 792, 86: 554, 87: 792, 88: 554, 89: 694, 90: 456, 91: 16, 92: 254, 93: 30, 94: 268, 95: 142, 96: 380, 97: 30, 98: 268, 99: 44, 100: 282, 101: 16, 102: 254, 103: 128, 104: 366, 105: 86, 106: 324, 107: 100, 108: 338, 109: 666, 110: 428, 111: 764, 112: 526, 113: 58, 114: 296, 115: 58, 116: 296, 117: 156, 118: 394, 119: 764, 120: 526, 121: 694, 122: 456, 123: 16, 124: 254, 125: 750, 126: 512, 127: 72, 128: 310, 129: 792, 130: 554, 131: 750, 132: 512, 133: 72, 134: 310, 135: 666, 136: 428, 137: 156, 138: 394, 139: 722, 140: 484, 141: 114, 142: 352, 143: 750, 144: 512, 145: 30, 146: 268, 147: 58, 148: 296, 149: 764, 150: 526, 151: 44, 152: 282, 153: 792, 154: 554, 155: 86, 156: 324, 157: 16, 158: 254, 159: 100, 160: 338, 161: 72, 162: 310, 163: 16, 164: 254, 165: 128, 166: 366, 167: 792, 168: 554, 169: 652, 170: 414, 171: 680, 172: 442, 173: 44, 174: 282, 175: 792, 176: 554, 177: 764, 178: 526, 179: 736, 180: 498, 181: 666, 182: 428, 183: 694, 184: 456, 185: 694, 186: 456, 187: 792, 188: 554, 189: 30, 190: 268, 191: 16, 192: 254, 193: 72, 194: 310, 195: 44, 196: 282, 197: 128, 198: 366, 199: 30, 200: 268}
Number of labels used: 42
Total time: 599.98 sec
Memory: 406.49 MB
=============================================
[runlim] sample:		1161.8 time, 610.1 real, 406.5 MB
[runlim] sample:		1182.0 time, 620.1 real, 406.5 MB
[runlim] sample:		1202.1 time, 630.1 real, 406.5 MB
[runlim] sample:		1222.2 time, 640.1 real, 406.5 MB
[runlim] sample:		1242.2 time, 650.1 real, 406.5 MB
[runlim] sample:		1262.2 time, 660.1 real, 406.5 MB
[runlim] sample:		1282.0 time, 670.1 real, 406.5 MB
[runlim] sample:		1301.9 time, 680.1 real, 406.5 MB
[runlim] sample:		1322.0 time, 690.1 real, 406.5 MB
[runlim] sample:		1342.1 time, 700.1 real, 406.5 MB
[runlim] sample:		1362.1 time, 710.1 real, 406.5 MB

========== NEW INCUMBENT SOLUTION ==========
{1: 694, 2: 456, 3: 142, 4: 380, 5: 142, 6: 380, 7: 792, 8: 554, 9: 142, 10: 380, 11: 666, 12: 428, 13: 58, 14: 296, 15: 114, 16: 352, 17: 114, 18: 352, 19: 58, 20: 296, 21: 30, 22: 268, 23: 86, 24: 324, 25: 708, 26: 470, 27: 100, 28: 338, 29: 694, 30: 456, 31: 142, 32: 380, 33: 44, 34: 282, 35: 142, 36: 380, 37: 86, 38: 324, 39: 16, 40: 254, 41: 16, 42: 254, 43: 86, 44: 324, 45: 58, 46: 296, 47: 764, 48: 526, 49: 30, 50: 268, 51: 128, 52: 366, 53: 666, 54: 428, 55: 44, 56: 282, 57: 722, 58: 484, 59: 652, 60: 414, 61: 86, 62: 324, 63: 16, 64: 254, 65: 750, 66: 512, 67: 708, 68: 470, 69: 30, 70: 268, 71: 666, 72: 428, 73: 142, 74: 380, 75: 722, 76: 484, 77: 44, 78: 282, 79: 16, 80: 254, 81: 764, 82: 526, 83: 30, 84: 268, 85: 792, 86: 554, 87: 792, 88: 554, 89: 694, 90: 456, 91: 16, 92: 254, 93: 30, 94: 268, 95: 142, 96: 380, 97: 30, 98: 268, 99: 44, 100: 282, 101: 16, 102: 254, 103: 128, 104: 366, 105: 86, 106: 324, 107: 100, 108: 338, 109: 666, 110: 428, 111: 764, 112: 526, 113: 58, 114: 296, 115: 58, 116: 296, 117: 156, 118: 394, 119: 764, 120: 526, 121: 694, 122: 456, 123: 16, 124: 254, 125: 750, 126: 512, 127: 72, 128: 310, 129: 792, 130: 554, 131: 750, 132: 512, 133: 72, 134: 310, 135: 666, 136: 428, 137: 156, 138: 394, 139: 722, 140: 484, 141: 114, 142: 352, 143: 750, 144: 512, 145: 30, 146: 268, 147: 58, 148: 296, 149: 764, 150: 526, 151: 44, 152: 282, 153: 792, 154: 554, 155: 86, 156: 324, 157: 16, 158: 254, 159: 100, 160: 338, 161: 72, 162: 310, 163: 16, 164: 254, 165: 128, 166: 366, 167: 792, 168: 554, 169: 652, 170: 414, 171: 680, 172: 442, 173: 44, 174: 282, 175: 792, 176: 554, 177: 764, 178: 526, 179: 736, 180: 498, 181: 666, 182: 428, 183: 694, 184: 456, 185: 694, 186: 456, 187: 792, 188: 554, 189: 30, 190: 268, 191: 16, 192: 254, 193: 72, 194: 310, 195: 44, 196: 282, 197: 128, 198: 366, 199: 30, 200: 268}
Number of labels used: 42
Total time: 712.09 sec
Memory: 406.49 MB
=============================================
      0     0       12.1423  1617       42.0000     Cuts: 698   391010   71.09%

========== NEW INCUMBENT SOLUTION ==========
{1: 694, 2: 456, 3: 142, 4: 380, 5: 142, 6: 380, 7: 792, 8: 554, 9: 142, 10: 380, 11: 666, 12: 428, 13: 58, 14: 296, 15: 114, 16: 352, 17: 114, 18: 352, 19: 58, 20: 296, 21: 30, 22: 268, 23: 86, 24: 324, 25: 708, 26: 470, 27: 100, 28: 338, 29: 694, 30: 456, 31: 142, 32: 380, 33: 44, 34: 282, 35: 142, 36: 380, 37: 86, 38: 324, 39: 16, 40: 254, 41: 16, 42: 254, 43: 86, 44: 324, 45: 58, 46: 296, 47: 764, 48: 526, 49: 30, 50: 268, 51: 128, 52: 366, 53: 666, 54: 428, 55: 44, 56: 282, 57: 722, 58: 484, 59: 652, 60: 414, 61: 86, 62: 324, 63: 16, 64: 254, 65: 750, 66: 512, 67: 708, 68: 470, 69: 30, 70: 268, 71: 666, 72: 428, 73: 142, 74: 380, 75: 722, 76: 484, 77: 44, 78: 282, 79: 16, 80: 254, 81: 764, 82: 526, 83: 30, 84: 268, 85: 792, 86: 554, 87: 792, 88: 554, 89: 694, 90: 456, 91: 16, 92: 254, 93: 30, 94: 268, 95: 142, 96: 380, 97: 30, 98: 268, 99: 44, 100: 282, 101: 16, 102: 254, 103: 128, 104: 366, 105: 86, 106: 324, 107: 100, 108: 338, 109: 666, 110: 428, 111: 764, 112: 526, 113: 58, 114: 296, 115: 58, 116: 296, 117: 156, 118: 394, 119: 764, 120: 526, 121: 694, 122: 456, 123: 16, 124: 254, 125: 750, 126: 512, 127: 72, 128: 310, 129: 792, 130: 554, 131: 750, 132: 512, 133: 72, 134: 310, 135: 666, 136: 428, 137: 156, 138: 394, 139: 722, 140: 484, 141: 114, 142: 352, 143: 750, 144: 512, 145: 30, 146: 268, 147: 58, 148: 296, 149: 764, 150: 526, 151: 44, 152: 282, 153: 792, 154: 554, 155: 86, 156: 324, 157: 16, 158: 254, 159: 100, 160: 338, 161: 72, 162: 310, 163: 16, 164: 254, 165: 128, 166: 366, 167: 792, 168: 554, 169: 652, 170: 414, 171: 680, 172: 442, 173: 44, 174: 282, 175: 792, 176: 554, 177: 764, 178: 526, 179: 736, 180: 498, 181: 666, 182: 428, 183: 694, 184: 456, 185: 694, 186: 456, 187: 792, 188: 554, 189: 30, 190: 268, 191: 16, 192: 254, 193: 72, 194: 310, 195: 44, 196: 282, 197: 128, 198: 366, 199: 30, 200: 268}
Number of labels used: 42
Total time: 712.11 sec
Memory: 406.49 MB
=============================================
[runlim] sample:		1382.2 time, 720.1 real, 416.9 MB
[runlim] sample:		1402.1 time, 730.1 real, 416.9 MB
[runlim] sample:		1422.0 time, 740.1 real, 416.9 MB
[runlim] sample:		1442.0 time, 750.1 real, 416.9 MB
[runlim] sample:		1462.2 time, 760.1 real, 416.9 MB
[runlim] sample:		1482.0 time, 770.1 real, 416.9 MB
[runlim] sample:		1502.1 time, 780.1 real, 416.9 MB
[runlim] sample:		1522.2 time, 790.1 real, 416.9 MB
[runlim] sample:		1542.1 time, 800.1 real, 416.9 MB
[runlim] sample:		1562.0 time, 810.1 real, 416.9 MB
[runlim] sample:		1582.1 time, 820.1 real, 416.9 MB

========== NEW INCUMBENT SOLUTION ==========
{1: 694, 2: 456, 3: 142, 4: 380, 5: 142, 6: 380, 7: 792, 8: 554, 9: 142, 10: 380, 11: 666, 12: 428, 13: 58, 14: 296, 15: 114, 16: 352, 17: 114, 18: 352, 19: 58, 20: 296, 21: 30, 22: 268, 23: 86, 24: 324, 25: 708, 26: 470, 27: 100, 28: 338, 29: 694, 30: 456, 31: 142, 32: 380, 33: 44, 34: 282, 35: 142, 36: 380, 37: 86, 38: 324, 39: 16, 40: 254, 41: 16, 42: 254, 43: 86, 44: 324, 45: 58, 46: 296, 47: 764, 48: 526, 49: 30, 50: 268, 51: 128, 52: 366, 53: 666, 54: 428, 55: 44, 56: 282, 57: 722, 58: 484, 59: 652, 60: 414, 61: 86, 62: 324, 63: 16, 64: 254, 65: 750, 66: 512, 67: 708, 68: 470, 69: 30, 70: 268, 71: 666, 72: 428, 73: 142, 74: 380, 75: 722, 76: 484, 77: 44, 78: 282, 79: 16, 80: 254, 81: 764, 82: 526, 83: 30, 84: 268, 85: 792, 86: 554, 87: 792, 88: 554, 89: 694, 90: 456, 91: 16, 92: 254, 93: 30, 94: 268, 95: 142, 96: 380, 97: 30, 98: 268, 99: 44, 100: 282, 101: 16, 102: 254, 103: 128, 104: 366, 105: 86, 106: 324, 107: 100, 108: 338, 109: 666, 110: 428, 111: 764, 112: 526, 113: 58, 114: 296, 115: 58, 116: 296, 117: 156, 118: 394, 119: 764, 120: 526, 121: 694, 122: 456, 123: 16, 124: 254, 125: 750, 126: 512, 127: 72, 128: 310, 129: 792, 130: 554, 131: 750, 132: 512, 133: 72, 134: 310, 135: 666, 136: 428, 137: 156, 138: 394, 139: 722, 140: 484, 141: 114, 142: 352, 143: 750, 144: 512, 145: 30, 146: 268, 147: 58, 148: 296, 149: 764, 150: 526, 151: 44, 152: 282, 153: 792, 154: 554, 155: 86, 156: 324, 157: 16, 158: 254, 159: 100, 160: 338, 161: 72, 162: 310, 163: 16, 164: 254, 165: 128, 166: 366, 167: 792, 168: 554, 169: 652, 170: 414, 171: 680, 172: 442, 173: 44, 174: 282, 175: 792, 176: 554, 177: 764, 178: 526, 179: 736, 180: 498, 181: 666, 182: 428, 183: 694, 184: 456, 185: 694, 186: 456, 187: 792, 188: 554, 189: 30, 190: 268, 191: 16, 192: 254, 193: 72, 194: 310, 195: 44, 196: 282, 197: 128, 198: 366, 199: 30, 200: 268}
Number of labels used: 42
Total time: 825.51 sec
Memory: 416.87 MB
=============================================
      0     0       12.1842  1658       42.0000     Cuts: 469   464990   70.99%

========== NEW INCUMBENT SOLUTION ==========
{1: 694, 2: 456, 3: 142, 4: 380, 5: 142, 6: 380, 7: 792, 8: 554, 9: 142, 10: 380, 11: 666, 12: 428, 13: 58, 14: 296, 15: 114, 16: 352, 17: 114, 18: 352, 19: 58, 20: 296, 21: 30, 22: 268, 23: 86, 24: 324, 25: 708, 26: 470, 27: 100, 28: 338, 29: 694, 30: 456, 31: 142, 32: 380, 33: 44, 34: 282, 35: 142, 36: 380, 37: 86, 38: 324, 39: 16, 40: 254, 41: 16, 42: 254, 43: 86, 44: 324, 45: 58, 46: 296, 47: 764, 48: 526, 49: 30, 50: 268, 51: 128, 52: 366, 53: 666, 54: 428, 55: 44, 56: 282, 57: 722, 58: 484, 59: 652, 60: 414, 61: 86, 62: 324, 63: 16, 64: 254, 65: 750, 66: 512, 67: 708, 68: 470, 69: 30, 70: 268, 71: 666, 72: 428, 73: 142, 74: 380, 75: 722, 76: 484, 77: 44, 78: 282, 79: 16, 80: 254, 81: 764, 82: 526, 83: 30, 84: 268, 85: 792, 86: 554, 87: 792, 88: 554, 89: 694, 90: 456, 91: 16, 92: 254, 93: 30, 94: 268, 95: 142, 96: 380, 97: 30, 98: 268, 99: 44, 100: 282, 101: 16, 102: 254, 103: 128, 104: 366, 105: 86, 106: 324, 107: 100, 108: 338, 109: 666, 110: 428, 111: 764, 112: 526, 113: 58, 114: 296, 115: 58, 116: 296, 117: 156, 118: 394, 119: 764, 120: 526, 121: 694, 122: 456, 123: 16, 124: 254, 125: 750, 126: 512, 127: 72, 128: 310, 129: 792, 130: 554, 131: 750, 132: 512, 133: 72, 134: 310, 135: 666, 136: 428, 137: 156, 138: 394, 139: 722, 140: 484, 141: 114, 142: 352, 143: 750, 144: 512, 145: 30, 146: 268, 147: 58, 148: 296, 149: 764, 150: 526, 151: 44, 152: 282, 153: 792, 154: 554, 155: 86, 156: 324, 157: 16, 158: 254, 159: 100, 160: 338, 161: 72, 162: 310, 163: 16, 164: 254, 165: 128, 166: 366, 167: 792, 168: 554, 169: 652, 170: 414, 171: 680, 172: 442, 173: 44, 174: 282, 175: 792, 176: 554, 177: 764, 178: 526, 179: 736, 180: 498, 181: 666, 182: 428, 183: 694, 184: 456, 185: 694, 186: 456, 187: 792, 188: 554, 189: 30, 190: 268, 191: 16, 192: 254, 193: 72, 194: 310, 195: 44, 196: 282, 197: 128, 198: 366, 199: 30, 200: 268}
Number of labels used: 42
Total time: 825.53 sec
Memory: 416.87 MB
=============================================
[runlim] sample:		1602.0 time, 830.1 real, 416.9 MB
[runlim] sample:		1622.0 time, 840.1 real, 416.9 MB
[runlim] sample:		1642.1 time, 850.1 real, 416.9 MB
[runlim] sample:		1662.2 time, 860.1 real, 416.9 MB
[runlim] sample:		1682.0 time, 870.1 real, 416.9 MB
[runlim] sample:		1702.1 time, 880.1 real, 416.9 MB
[runlim] sample:		1722.2 time, 890.1 real, 416.9 MB

========== NEW INCUMBENT SOLUTION ==========
{1: 694, 2: 456, 3: 142, 4: 380, 5: 142, 6: 380, 7: 792, 8: 554, 9: 142, 10: 380, 11: 666, 12: 428, 13: 58, 14: 296, 15: 114, 16: 352, 17: 114, 18: 352, 19: 58, 20: 296, 21: 30, 22: 268, 23: 86, 24: 324, 25: 708, 26: 470, 27: 100, 28: 338, 29: 694, 30: 456, 31: 142, 32: 380, 33: 44, 34: 282, 35: 142, 36: 380, 37: 86, 38: 324, 39: 16, 40: 254, 41: 16, 42: 254, 43: 86, 44: 324, 45: 58, 46: 296, 47: 764, 48: 526, 49: 30, 50: 268, 51: 128, 52: 366, 53: 666, 54: 428, 55: 44, 56: 282, 57: 722, 58: 484, 59: 652, 60: 414, 61: 86, 62: 324, 63: 16, 64: 254, 65: 750, 66: 512, 67: 708, 68: 470, 69: 30, 70: 268, 71: 666, 72: 428, 73: 142, 74: 380, 75: 722, 76: 484, 77: 44, 78: 282, 79: 16, 80: 254, 81: 764, 82: 526, 83: 30, 84: 268, 85: 792, 86: 554, 87: 792, 88: 554, 89: 694, 90: 456, 91: 16, 92: 254, 93: 30, 94: 268, 95: 142, 96: 380, 97: 30, 98: 268, 99: 44, 100: 282, 101: 16, 102: 254, 103: 128, 104: 366, 105: 86, 106: 324, 107: 100, 108: 338, 109: 666, 110: 428, 111: 764, 112: 526, 113: 58, 114: 296, 115: 58, 116: 296, 117: 156, 118: 394, 119: 764, 120: 526, 121: 694, 122: 456, 123: 16, 124: 254, 125: 750, 126: 512, 127: 72, 128: 310, 129: 792, 130: 554, 131: 750, 132: 512, 133: 72, 134: 310, 135: 666, 136: 428, 137: 156, 138: 394, 139: 722, 140: 484, 141: 114, 142: 352, 143: 750, 144: 512, 145: 30, 146: 268, 147: 58, 148: 296, 149: 764, 150: 526, 151: 44, 152: 282, 153: 792, 154: 554, 155: 86, 156: 324, 157: 16, 158: 254, 159: 100, 160: 338, 161: 72, 162: 310, 163: 16, 164: 254, 165: 128, 166: 366, 167: 792, 168: 554, 169: 652, 170: 414, 171: 680, 172: 442, 173: 44, 174: 282, 175: 792, 176: 554, 177: 764, 178: 526, 179: 736, 180: 498, 181: 666, 182: 428, 183: 694, 184: 456, 185: 694, 186: 456, 187: 792, 188: 554, 189: 30, 190: 268, 191: 16, 192: 254, 193: 72, 194: 310, 195: 44, 196: 282, 197: 128, 198: 366, 199: 30, 200: 268}
Number of labels used: 42
Total time: 895.13 sec
Memory: 416.87 MB
=============================================
[runlim] end:			Sat Jan 17 02:05:06 2026
[runlim] status:		out of time
[runlim] result:		2
[runlim] children:		0
[runlim] real:			900.07 seconds
[runlim] time:			1741.84 seconds
[runlim] space:			416.9 MB
[runlim] samples:		8999
